(set-info :source  loris-7.ddns.comp.nus.edu.sg/~project/hip/) 
;Variables declarations
(declare-fun nr_8215 () Int)
(declare-fun nl_8212 () Int)
(declare-fun r_8214 () Int)
(declare-fun l_8211 () Int)
(declare-fun n () Int)
(declare-fun flted_12_8048 () Int)
(declare-fun nl_8052 () Int)
(declare-fun l_8051 () Int)
(declare-fun flted_12_8047 () Int)
(declare-fun nr_8055 () Int)
(declare-fun r_8054 () Int)
(declare-fun bhl_8213 () Int)
(declare-fun bhr_8216 () Int)
(declare-fun bhl_8053 () Int)
(declare-fun bhr_8056 () Int)
(declare-fun bh () Int)
;Relations declarations
;Axioms assertions
;Antecedent
(assert (= bhl_8213 bhr_8216))
(assert (= nr_8215 nr_8055))
(assert (= nl_8212 nl_8052))
(assert (= r_8214 r_8054))
(assert (= l_8211 l_8051))
(assert (= flted_12_8048 0))
(assert (= flted_12_8047 0))
(assert (= n (+ (+ nr_8055 1) nl_8052)))
(assert (or (and (and (and (= flted_12_8048 0) (<= 2 bhl_8053)) (<= 1 nl_8052)) (> l_8051 0)) (or (and (and (and (< l_8051 1) (= nl_8052 0)) (= bhl_8053 1)) (= flted_12_8048 0)) (and (and (and (= flted_12_8048 1) (<= 1 bhl_8053)) (<= 1 nl_8052)) (> l_8051 0)))))
(assert (or (and (and (and (= flted_12_8047 0) (<= 2 bhr_8056)) (<= 1 nr_8055)) (> r_8054 0)) (or (and (and (and (< r_8054 1) (= nr_8055 0)) (= bhr_8056 1)) (= flted_12_8047 0)) (and (and (and (= flted_12_8047 1) (<= 1 bhr_8056)) (<= 1 nr_8055)) (> r_8054 0)))))
(assert (= bhl_8213 bhl_8053))
(assert (= bhr_8216 bhr_8056))
(assert (= bhl_8053 bh))
(assert (= bhr_8056 bh))
;Negation of Consequence
(assert (not (<= 1 bh)))
(check-sat)